[runlim] version:		1.10
[runlim] time limit:		311040000 seconds
[runlim] real time limit:	600 seconds
[runlim] space limit:		7759 MB
[runlim] argv[0]:		python3
[runlim] argv[1]:		-u
[runlim] argv[2]:		cp.py
[runlim] argv[3]:		P1
[runlim] start:			Sun Mar 22 23:09:33 2026
[runlim] main pid:		18764
Reading dataset from data/P1.txt...
Greedy span: 380 (381-1)
--------------------------------
Starting CP Optimizer with Initial UB = 381...
Mô hình CP đã xây dựng xong, bắt đầu giải...
 ! --------------------------------------------------- CP Optimizer 22.1.1.0 --
 ! Minimization problem - 482 variables, 57234 constraints
 ! Presolve      : 56772 extractables eliminated, 54209 constraints generated
 ! LogVerbosity         = Terse
 ! Initial process time : 0.74s (0.74s extraction + 0.00s propagation)
 !  . Log search space  : 3095.3 (before), 3095.3 (after)
 !  . Memory usage      : 47.9 MB (before), 47.9 MB (after)
 ! Using parallel search with 12 workers.
 ! ----------------------------------------------------------------------------
 !          Best Branches  Non-fixed    W       Branch decision
                        0        482                 -
 + New bound is 381
 *           381      317  1.42s        1      (gap is 0.00%)
 ! ----------------------------------------------------------------------------
 ! Search completed, 1 solution found.
 ! Best objective         : 381 (optimal - effective tol. is 0)
 ! Best bound             : 381
 ! ----------------------------------------------------------------------------
 ! Number of branches     : 4025
 ! Number of fails        : 92
 ! Total memory usage     : 756.4 MB (756.3 MB CP Optimizer + 0.1 MB Concert)
 ! Time spent in solve    : 1.42s (0.68s engine + 0.74s extraction)
 ! Search speed (br. / s) : 5919.1
 ! ----------------------------------------------------------------------------
--------------------------------
Optimal span found: 380 (381-1)
Total time taken: 3.05s
CP solution is valid.
[runlim] end:			Sun Mar 22 23:09:37 2026
[runlim] status:		ok
[runlim] result:		0
[runlim] children:		24
[runlim] real:			4.30 seconds
[runlim] time:			9.12 seconds
[runlim] space:			931.7 MB
[runlim] samples:		33
